120
150
78
72
73
84
23
33
66
40
78
80
90
50
96
39
63
32
55
32
35
83
22
32
53
32
22
83
75
67
53
66
61
21
88
94
31
55
57
61
32
71
83
20
57
98
67
52
27
47
39
86
64
71
37
88
39
22
40
62
22
73
70
55
33
21
52
66
88
88
21
79
61
83
88
61
84
43
99
61
78
62
32
27
84
94
72
40
51
67
83
71
66
83
77
55
67
61
58
46
33
26
75
98
26
90
31
75
34
86
52
71
79
57
75
64
75
88
37
66
61
83
